17	4
13	12	10	14	
0	0	0	0	0	3	2	3	4	
10	1	0	0	0	2	17	17	
2	9	0	0	0	3	9	10	11	
4	0	0	0	7	3	5	7	17	
7	0	0	10	0	3	6	8	10	
50	8	0	0	0	3	12	13	17	
225	5	0	0	0	3	14	16	17	
25	0	9	0	0	2	17	17	
50	0	0	4	0	2	17	17	
200	0	0	0	7	2	17	17	
75	0	4	0	0	3	16	17	17	
150	0	10	0	0	3	17	17	17	
4	5	0	0	0	2	15	17	
6	0	0	10	0	2	17	17	
6	0	0	0	7	2	17	17	
6	8	0	0	0	1	17	
0	0	0	0	0	0	
